presolving:
(round 1, fast)       0 del vars, 0 del conss, 0 add conss, 42240 chg bounds, 0 chg sides, 0 chg coeffs, 0 upgd conss, 0 impls, 0 clqs
(round 2, fast)       0 del vars, 0 del conss, 0 add conss, 42240 chg bounds, 0 chg sides, 10240 chg coeffs, 0 upgd conss, 0 impls, 0 clqs
(round 3, fast)       0 del vars, 0 del conss, 0 add conss, 61939 chg bounds, 0 chg sides, 10240 chg coeffs, 0 upgd conss, 0 impls, 0 clqs
(round 4, fast)       0 del vars, 0 del conss, 0 add conss, 61939 chg bounds, 0 chg sides, 29939 chg coeffs, 0 upgd conss, 0 impls, 0 clqs
   (0.4s) running MILP presolver
   (0.5s) MILP presolver (4 rounds): 0 aggregations, 0 fixings, 2103 bound changes
(round 5, medium)     0 del vars, 0 del conss, 0 add conss, 64042 chg bounds, 0 chg sides, 29939 chg coeffs, 0 upgd conss, 0 impls, 0 clqs
(round 6, exhaustive) 0 del vars, 0 del conss, 0 add conss, 64042 chg bounds, 0 chg sides, 32042 chg coeffs, 32000 upgd conss, 0 impls, 0 clqs
   (0.8s) probing: 51/200 (25.5%) - 0 fixings, 0 aggregations, 0 implications, 0 bound changes
   (0.8s) probing aborted: 50/50 successive totally useless probings
   (1.1s) symmetry computation started: requiring (bin +, int -, cont +), (fixed: bin -, int +, cont -)
   (1.2s) no symmetry present
presolving (7 rounds: 7 fast, 3 medium, 2 exhaustive):
 0 deleted vars, 0 deleted constraints, 0 added constraints, 64042 tightened bounds, 0 added holes, 0 changed sides, 32042 changed coefficients
 32000 implications, 0 cliques
presolved problem has 32200 variables (200 bin, 0 int, 0 impl, 32000 cont) and 32360 constraints
  32000 constraints of type <varbound>
    360 constraints of type <linear>
Presolving Time: 1.10

 time | node  | left  |LP iter|LP it/n|mem/heur|mdpt |vars |cons |rows |cuts |sepa|confs|strbr|  dualbound   | primalbound  |  gap   | compl. 
p 1.4s|     1 |     0 |   280 |     - |   locks|   0 |  32k|  32k|  32k|   0 |  0 |   0 |   0 | 0.000000e+00 | 3.512960e+06 |    Inf | unknown
i 1.5s|     1 |     0 |   280 |     - |  oneopt|   0 |  32k|  32k|  32k|   0 |  0 |   0 |   0 | 0.000000e+00 | 3.469465e+06 |    Inf | unknown
  1.8s|     1 |     0 |  1112 |     - |   278M |   0 |  32k|  32k|  32k|   0 |  0 |   0 |   0 | 3.425204e+06 | 3.469465e+06 |   1.29%| unknown
r 1.8s|     1 |     0 |  1112 |     - |simplero|   0 |  32k|  32k|  32k|   0 |  0 |   0 |   0 | 3.425204e+06 | 3.465014e+06 |   1.16%| unknown
r 1.9s|     1 |     0 |  1112 |     - |shifting|   0 |  32k|  32k|  32k|   0 |  0 |   0 |   0 | 3.425204e+06 | 3.463156e+06 |   1.11%| unknown
  2.4s|     1 |     0 |  1381 |     - |   297M |   0 |  32k|  32k|  32k|  40 |  1 |   0 |   0 | 3.431899e+06 | 3.463156e+06 |   0.91%| unknown
r 2.4s|     1 |     0 |  1381 |     - |shifting|   0 |  32k|  32k|  32k|  40 |  1 |   0 |   0 | 3.431899e+06 | 3.462311e+06 |   0.89%| unknown
  2.9s|     1 |     0 |  1473 |     - |   305M |   0 |  32k|  32k|  32k|  56 |  2 |   0 |   0 | 3.434431e+06 | 3.462311e+06 |   0.81%| unknown
r 2.9s|     1 |     0 |  1473 |     - |simplero|   0 |  32k|  32k|  32k|  56 |  2 |   0 |   0 | 3.434431e+06 | 3.461840e+06 |   0.80%| unknown
r 2.9s|     1 |     0 |  1473 |     - |shifting|   0 |  32k|  32k|  32k|  56 |  2 |   0 |   0 | 3.434431e+06 | 3.460182e+06 |   0.75%| unknown
  3.4s|     1 |     0 |  1580 |     - |   313M |   0 |  32k|  32k|  32k|  84 |  3 |   0 |   0 | 3.436728e+06 | 3.460182e+06 |   0.68%| unknown
r 3.4s|     1 |     0 |  1580 |     - |shifting|   0 |  32k|  32k|  32k|  84 |  3 |   0 |   0 | 3.436728e+06 | 3.459422e+06 |   0.66%| unknown
  3.8s|     1 |     0 |  1629 |     - |   318M |   0 |  32k|  32k|  32k|  97 |  4 |   0 |   0 | 3.437281e+06 | 3.459422e+06 |   0.64%| unknown
r 3.9s|     1 |     0 |  1629 |     - |shifting|   0 |  32k|  32k|  32k|  97 |  4 |   0 |   0 | 3.437281e+06 | 3.459135e+06 |   0.64%| unknown
  4.3s|     1 |     0 |  1659 |     - |   327M |   0 |  32k|  32k|  32k| 103 |  5 |   0 |   0 | 3.437510e+06 | 3.459135e+06 |   0.63%| unknown
 time | node  | left  |LP iter|LP it/n|mem/heur|mdpt |vars |cons |rows |cuts |sepa|confs|strbr|  dualbound   | primalbound  |  gap   | compl. 
r 4.4s|     1 |     0 |  1659 |     - |shifting|   0 |  32k|  32k|  32k| 103 |  5 |   0 |   0 | 3.437510e+06 | 3.458013e+06 |   0.60%| unknown
  4.8s|     1 |     0 |  1714 |     - |   331M |   0 |  32k|  32k|  32k| 118 |  6 |   0 |   0 | 3.437781e+06 | 3.458013e+06 |   0.59%| unknown
r 4.8s|     1 |     0 |  1714 |     - |simplero|   0 |  32k|  32k|  32k| 118 |  6 |   0 |   0 | 3.437781e+06 | 3.456537e+06 |   0.55%| unknown
r 4.8s|     1 |     0 |  1714 |     - |shifting|   0 |  32k|  32k|  32k| 118 |  6 |   0 |   0 | 3.437781e+06 | 3.455284e+06 |   0.51%| unknown
  5.3s|     1 |     0 |  1758 |     - |   338M |   0 |  32k|  32k|  32k| 130 |  7 |   0 |   0 | 3.437950e+06 | 3.455284e+06 |   0.50%| unknown
r 5.3s|     1 |     0 |  1758 |     - |shifting|   0 |  32k|  32k|  32k| 130 |  7 |   0 |   0 | 3.437950e+06 | 3.454248e+06 |   0.47%| unknown
  5.7s|     1 |     0 |  1819 |     - |   344M |   0 |  32k|  32k|  32k| 139 |  8 |   0 |   0 | 3.438176e+06 | 3.454248e+06 |   0.47%| unknown
r 5.8s|     1 |     0 |  1819 |     - |shifting|   0 |  32k|  32k|  32k| 139 |  8 |   0 |   0 | 3.438176e+06 | 3.453122e+06 |   0.43%| unknown
  6.2s|     1 |     0 |  1845 |     - |   349M |   0 |  32k|  32k|  32k| 146 |  9 |   0 |   0 | 3.438246e+06 | 3.453122e+06 |   0.43%| unknown
r 6.2s|     1 |     0 |  1845 |     - |shifting|   0 |  32k|  32k|  32k| 146 |  9 |   0 |   0 | 3.438246e+06 | 3.453019e+06 |   0.43%| unknown
  6.7s|     1 |     0 |  1889 |     - |   354M |   0 |  32k|  32k|  32k| 152 | 10 |   0 |   0 | 3.438313e+06 | 3.453019e+06 |   0.43%| unknown
r 6.7s|     1 |     0 |  1889 |     - |shifting|   0 |  32k|  32k|  32k| 152 | 10 |   0 |   0 | 3.438313e+06 | 3.452086e+06 |   0.40%| unknown
  7.2s|     1 |     0 |  1949 |     - |   359M |   0 |  32k|  32k|  32k| 168 | 11 |   0 |   0 | 3.438523e+06 | 3.452086e+06 |   0.39%| unknown
r 7.2s|     1 |     0 |  1949 |     - |shifting|   0 |  32k|  32k|  32k| 168 | 11 |   0 |   0 | 3.438523e+06 | 3.452070e+06 |   0.39%| unknown
  7.7s|     1 |     0 |  1998 |     - |   365M |   0 |  32k|  32k|  32k| 180 | 12 |   0 |   0 | 3.438609e+06 | 3.452070e+06 |   0.39%| unknown
 time | node  | left  |LP iter|LP it/n|mem/heur|mdpt |vars |cons |rows |cuts |sepa|confs|strbr|  dualbound   | primalbound  |  gap   | compl. 
r 7.7s|     1 |     0 |  1998 |     - |shifting|   0 |  32k|  32k|  32k| 180 | 12 |   0 |   0 | 3.438609e+06 | 3.451471e+06 |   0.37%| unknown
i 8.0s|     1 |     0 |  2269 |     - |  oneopt|   0 |  32k|  32k|  32k| 180 | 12 |   0 |   0 | 3.438609e+06 | 3.445531e+06 |   0.20%| unknown
  8.5s|     1 |     0 |  2371 |     - |   372M |   0 |  32k|  32k|  32k| 194 | 13 |   0 |   0 | 3.438687e+06 | 3.445531e+06 |   0.20%| unknown
  9.0s|     1 |     0 |  2455 |     - |   379M |   0 |  32k|  32k|  32k| 204 | 14 |   0 |   0 | 3.438776e+06 | 3.445531e+06 |   0.20%| unknown
r 9.3s|     1 |     0 |  2696 |     - |intshift|   0 |  32k|  32k|  32k| 204 | 14 |   0 |   0 | 3.438776e+06 | 3.441324e+06 |   0.07%| unknown
L53.2s|     1 |     0 |  2978 |     - |    rens|   0 |  32k|  32k|  32k| 204 | 14 |  30k|   0 | 3.438776e+06 | 3.439336e+06 |   0.02%| unknown
 53.6s|     1 |     0 |  2978 |     - |   388M |   0 |  32k|  32k|  32k| 204 | 14 |  30k|   0 | 3.438776e+06 | 3.439336e+06 |   0.02%| unknown
 53.7s|     1 |     0 |  2978 |     - |   391M |   0 |  32k|  32k|  32k| 204 | 14 |  30k|   0 | 3.438776e+06 | 3.439336e+06 |   0.02%| unknown
 54.1s|     1 |     0 |  3016 |     - |   394M |   0 |  32k|  32k|  29k| 212 | 15 |  30k|   0 | 3.438817e+06 | 3.439336e+06 |   0.02%| unknown
 54.1s|     1 |     0 |  3016 |     - |   395M |   0 |  32k|  32k|  29k| 212 | 15 |  30k|   0 | 3.438817e+06 | 3.439336e+06 |   0.02%| unknown
 54.2s|     1 |     0 |  3082 |     - |   395M |   0 |  32k|  32k|  29k| 227 | 16 |  30k|   0 | 3.438894e+06 | 3.439336e+06 |   0.01%| unknown
 54.2s|     1 |     0 |  3082 |     - |   395M |   0 |  32k|  32k|  29k| 227 | 16 |  30k|   0 | 3.438894e+06 | 3.439336e+06 |   0.01%| unknown
 54.3s|     1 |     0 |  3082 |     - |   395M |   0 |  32k|  28k|  29k| 227 | 16 |  30k|   0 | 3.438894e+06 | 3.439336e+06 |   0.01%| unknown
 54.6s|     1 |     0 |  3114 |     - |   398M |   0 |  32k|  28k|  29k| 237 | 17 |  30k|   0 | 3.438934e+06 | 3.439336e+06 |   0.01%| unknown
 54.7s|     1 |     0 |  3114 |     - |   399M |   0 |  32k|  28k|  28k| 237 | 17 |  30k|   0 | 3.438934e+06 | 3.439336e+06 |   0.01%| unknown
 time | node  | left  |LP iter|LP it/n|mem/heur|mdpt |vars |cons |rows |cuts |sepa|confs|strbr|  dualbound   | primalbound  |  gap   | compl. 
 54.7s|     1 |     0 |  3163 |     - |   399M |   0 |  32k|  28k|  28k| 247 | 18 |  30k|   0 | 3.438967e+06 | 3.439336e+06 |   0.01%| unknown
 54.8s|     1 |     0 |  3163 |     - |   400M |   0 |  32k|  27k|  28k| 247 | 18 |  30k|   0 | 3.438967e+06 | 3.439336e+06 |   0.01%| unknown
 55.1s|     1 |     0 |  3197 |     - |   403M |   0 |  32k|  27k|  28k| 253 | 19 |  30k|   0 | 3.438985e+06 | 3.439336e+06 |   0.01%| unknown
 55.1s|     1 |     0 |  3197 |     - |   404M |   0 |  32k|  27k|  27k| 253 | 19 |  30k|   0 | 3.438985e+06 | 3.439336e+06 |   0.01%| unknown
 55.2s|     1 |     0 |  3247 |     - |   404M |   0 |  32k|  27k|  27k| 259 | 20 |  30k|   0 | 3.439001e+06 | 3.439336e+06 |   0.01%| unknown
 55.2s|     1 |     0 |  3247 |     - |   405M |   0 |  32k|  27k|  27k| 259 | 20 |  30k|   0 | 3.439001e+06 | 3.439336e+06 |   0.01%| unknown
 55.2s|     1 |     0 |  3247 |     - |   405M |   0 |  32k|  27k|  27k| 259 | 20 |  30k|   0 | 3.439001e+06 | 3.439336e+06 |   0.01%| unknown
 55.4s|     1 |     0 |  3275 |     - |   407M |   0 |  32k|  27k|  27k| 263 | 21 |  30k|   0 | 3.439006e+06 | 3.439336e+06 |   0.01%| unknown
 55.5s|     1 |     0 |  3275 |     - |   409M |   0 |  32k|  27k|  27k| 263 | 21 |  30k|   0 | 3.439006e+06 | 3.439336e+06 |   0.01%| unknown
 55.7s|     1 |     0 |  3343 |     - |   409M |   0 |  32k|  27k|  27k| 274 | 22 |  30k|   0 | 3.439045e+06 | 3.439336e+06 |   0.01%| unknown
 55.7s|     1 |     0 |  3343 |     - |   409M |   0 |  32k|  27k|  27k| 274 | 22 |  30k|   0 | 3.439045e+06 | 3.439336e+06 |   0.01%| unknown
 55.8s|     1 |     0 |  3360 |     - |   409M |   0 |  32k|  27k|  27k| 280 | 23 |  30k|   0 | 3.439051e+06 | 3.439336e+06 |   0.01%| unknown
 55.8s|     1 |     0 |  3360 |     - |   409M |   0 |  32k|  26k|  27k| 280 | 23 |  30k|   0 | 3.439051e+06 | 3.439336e+06 |   0.01%| unknown
 56.1s|     1 |     0 |  3420 |     - |   412M |   0 |  32k|  26k|  27k| 282 | 24 |  30k|   0 | 3.439059e+06 | 3.439336e+06 |   0.01%| unknown
 56.2s|     1 |     0 |  3420 |     - |   413M |   0 |  32k|  26k|  26k| 282 | 24 |  30k|   0 | 3.439059e+06 | 3.439336e+06 |   0.01%| unknown
 time | node  | left  |LP iter|LP it/n|mem/heur|mdpt |vars |cons |rows |cuts |sepa|confs|strbr|  dualbound   | primalbound  |  gap   | compl. 
 56.2s|     1 |     0 |  3443 |     - |   413M |   0 |  32k|  26k|  26k| 287 | 25 |  30k|   0 | 3.439069e+06 | 3.439336e+06 |   0.01%| unknown
 56.2s|     1 |     0 |  3443 |     - |   414M |   0 |  32k|  26k|  26k| 287 | 25 |  30k|   0 | 3.439069e+06 | 3.439336e+06 |   0.01%| unknown
 56.3s|     1 |     0 |  3443 |     - |   414M |   0 |  32k|  26k|  26k| 287 | 25 |  30k|   0 | 3.439069e+06 | 3.439336e+06 |   0.01%| unknown
 56.5s|     1 |     0 |  3464 |     - |   416M |   0 |  32k|  26k|  26k| 289 | 26 |  30k|   0 | 3.439073e+06 | 3.439336e+06 |   0.01%| unknown
 56.5s|     1 |     0 |  3464 |     - |   416M |   0 |  32k|  26k|  26k| 289 | 26 |  30k|   0 | 3.439073e+06 | 3.439336e+06 |   0.01%| unknown
 56.7s|     1 |     0 |  3535 |     - |   416M |   0 |  32k|  26k|  26k| 291 | 27 |  30k|   0 | 3.439087e+06 | 3.439336e+06 |   0.01%| unknown
 56.7s|     1 |     0 |  3535 |     - |   417M |   0 |  32k|  26k|  26k| 291 | 27 |  30k|   0 | 3.439087e+06 | 3.439336e+06 |   0.01%| unknown
 56.8s|     1 |     0 |  3571 |     - |   417M |   0 |  32k|  26k|  26k| 299 | 28 |  30k|   0 | 3.439100e+06 | 3.439336e+06 |   0.01%| unknown
 56.9s|     1 |     0 |  3571 |     - |   417M |   0 |  32k|  25k|  26k| 299 | 28 |  30k|   0 | 3.439100e+06 | 3.439336e+06 |   0.01%| unknown
 57.2s|     1 |     0 |  3638 |     - |   418M |   0 |  32k|  25k|  26k| 306 | 29 |  30k|   0 | 3.439114e+06 | 3.439336e+06 |   0.01%| unknown
 57.2s|     1 |     0 |  3638 |     - |   418M |   0 |  32k|  25k|  25k| 306 | 29 |  30k|   0 | 3.439114e+06 | 3.439336e+06 |   0.01%| unknown
 57.3s|     1 |     0 |  3663 |     - |   418M |   0 |  32k|  25k|  25k| 310 | 30 |  30k|   0 | 3.439117e+06 | 3.439336e+06 |   0.01%| unknown
 57.3s|     1 |     0 |  3663 |     - |   419M |   0 |  32k|  25k|  25k| 310 | 30 |  30k|   0 | 3.439117e+06 | 3.439336e+06 |   0.01%| unknown
 57.6s|     1 |     0 |  3670 |     - |   419M |   0 |  32k|  25k|  25k| 313 | 31 |  30k|   0 | 3.439119e+06 | 3.439336e+06 |   0.01%| unknown
(run 1, node 1) restarting after 44 global fixings of integer variables

(restart) converted 255 cuts from the global cut pool into linear constraints

presolving:
(round 1, fast)       6444 del vars, 0 del conss, 0 add conss, 0 chg bounds, 0 chg sides, 23305 chg coeffs, 0 upgd conss, 32000 impls, 0 clqs
   (58.0s) running MILP presolver
   (58.0s) MILP presolver found nothing
presolving (2 rounds: 2 fast, 1 medium, 1 exhaustive):
 6444 deleted vars, 4 deleted constraints, 0 added constraints, 0 tightened bounds, 0 added holes, 4 changed sides, 23305 changed coefficients
 32000 implications, 0 cliques
presolved problem has 25756 variables (156 bin, 0 int, 0 impl, 25600 cont) and 25532 constraints
  24960 constraints of type <varbound>
    571 constraints of type <linear>
      1 constraints of type <logicor>
Presolving Time: 1.53
transformed 44/59 original solutions to the transformed problem space

 time | node  | left  |LP iter|LP it/n|mem/heur|mdpt |vars |cons |rows |cuts |sepa|confs|strbr|  dualbound   | primalbound  |  gap   | compl. 
 59.2s|     1 |     0 |  5332 |     - |   452M |   0 |  25k|  25k|  25k|   0 |  0 |  30k|   0 | 3.439119e+06 | 3.439336e+06 |   0.01%| unknown
 59.3s|     1 |     0 |  5332 |     - |   452M |   0 |  25k|  25k|  23k|   0 |  0 |  30k|   0 | 3.439119e+06 | 3.439336e+06 |   0.01%| unknown
 59.7s|     1 |     0 |  5372 |     - |   457M |   0 |  25k|  25k|  22k|   9 |  1 |  30k|   0 | 3.439135e+06 | 3.439336e+06 |   0.01%| unknown
 59.9s|     1 |     0 |  5435 |     - |   460M |   0 |  25k|  25k|  22k|  14 |  2 |  30k|   0 | 3.439151e+06 | 3.439336e+06 |   0.01%| unknown
 59.9s|     1 |     0 |  5435 |     - |   460M |   0 |  25k|  25k|  22k|  14 |  2 |  30k|   0 | 3.439151e+06 | 3.439336e+06 |   0.01%| unknown
 60.1s|     1 |     0 |  5481 |     - |   462M |   0 |  25k|  25k|  21k|  21 |  3 |  30k|   0 | 3.439156e+06 | 3.439336e+06 |   0.01%| unknown
 60.2s|     1 |     0 |  5481 |     - |   462M |   0 |  25k|  25k|  21k|  21 |  3 |  30k|   0 | 3.439156e+06 | 3.439336e+06 |   0.01%| unknown
 60.3s|     1 |     0 |  5513 |     - |   465M |   0 |  25k|  25k|  21k|  25 |  4 |  30k|   0 | 3.439159e+06 | 3.439336e+06 |   0.01%| unknown
 60.5s|     1 |     0 |  5545 |     - |   467M |   0 |  25k|  25k|  21k|  28 |  5 |  30k|   0 | 3.439163e+06 | 3.439336e+06 |   0.01%| unknown
 60.6s|     1 |     0 |  5545 |     - |   468M |   0 |  25k|  25k|  21k|  28 |  5 |  30k|   0 | 3.439163e+06 | 3.439336e+06 |   0.01%| unknown
 60.8s|     1 |     0 |  5643 |     - |   470M |   0 |  25k|  25k|  21k|  33 |  6 |  30k|   0 | 3.439176e+06 | 3.439336e+06 |   0.00%| unknown
 60.8s|     1 |     0 |  5643 |     - |   471M |   0 |  25k|  25k|  21k|  33 |  6 |  30k|   0 | 3.439176e+06 | 3.439336e+06 |   0.00%| unknown
 61.0s|     1 |     0 |  5707 |     - |   473M |   0 |  25k|  25k|  21k|  38 |  7 |  30k|   0 | 3.439186e+06 | 3.439336e+06 |   0.00%| unknown
 61.2s|     1 |     0 |  5746 |     - |   475M |   0 |  25k|  25k|  21k|  40 |  8 |  30k|   0 | 3.439199e+06 | 3.439336e+06 |   0.00%| unknown
 61.6s|     1 |     0 |  5845 |     - |   477M |   0 |  25k|  25k|  21k|  49 |  9 |  30k|   0 | 3.439206e+06 | 3.439336e+06 |   0.00%| unknown
 time | node  | left  |LP iter|LP it/n|mem/heur|mdpt |vars |cons |rows |cuts |sepa|confs|strbr|  dualbound   | primalbound  |  gap   | compl. 
 61.7s|     1 |     0 |  5845 |     - |   477M |   0 |  25k|  25k|  21k|  49 |  9 |  30k|   0 | 3.439206e+06 | 3.439336e+06 |   0.00%| unknown
 61.8s|     1 |     0 |  5855 |     - |   479M |   0 |  25k|  25k|  20k|  53 | 10 |  30k|   0 | 3.439207e+06 | 3.439336e+06 |   0.00%| unknown
 62.1s|     1 |     0 |  5880 |     - |   481M |   0 |  25k|  25k|  20k|  57 | 11 |  30k|   0 | 3.439208e+06 | 3.439336e+06 |   0.00%| unknown
(run 2, node 1) restarting after 29 global fixings of integer variables

(restart) converted 57 cuts from the global cut pool into linear constraints

presolving:
(round 1, fast)       2754 del vars, 642 del conss, 0 add conss, 23 chg bounds, 640 chg sides, 19776 chg coeffs, 0 upgd conss, 32000 impls, 1 clqs
(round 2, fast)       2767 del vars, 1930 del conss, 0 add conss, 33 chg bounds, 1920 chg sides, 19777 chg coeffs, 0 upgd conss, 32000 impls, 1 clqs
(round 3, fast)       2773 del vars, 2091 del conss, 0 add conss, 33 chg bounds, 1920 chg sides, 19777 chg coeffs, 0 upgd conss, 32000 impls, 1 clqs
   (64.5s) running MILP presolver
   (64.5s) MILP presolver (2 rounds): 0 aggregations, 0 fixings, 0 bound changes
(round 4, exhaustive) 2773 del vars, 2101 del conss, 0 add conss, 42 chg bounds, 1928 chg sides, 19785 chg coeffs, 0 upgd conss, 32000 impls, 1 clqs
presolving (5 rounds: 5 fast, 2 medium, 2 exhaustive):
 2773 deleted vars, 2101 deleted constraints, 0 added constraints, 42 tightened bounds, 0 added holes, 1928 changed sides, 19794 changed coefficients
 32000 implications, 1 cliques
presolved problem has 22983 variables (114 bin, 0 int, 0 impl, 22869 cont) and 18829 constraints
  18240 constraints of type <varbound>
      1 constraints of type <setppc>
    582 constraints of type <linear>
      6 constraints of type <logicor>
Presolving Time: 2.05
transformed 58/100 original solutions to the transformed problem space

 time | node  | left  |LP iter|LP it/n|mem/heur|mdpt |vars |cons |rows |cuts |sepa|confs|strbr|  dualbound   | primalbound  |  gap   | compl. 
 66.0s|     1 |     0 |  8268 |     - |   522M |   0 |  22k|  18k|  18k|   0 |  0 |  74k|   0 | 3.439208e+06 | 3.439336e+06 |   0.00%| unknown
 66.0s|     1 |     0 |  8268 |     - |   522M |   0 |  22k|  18k|  18k|   0 |  0 |  74k|   0 | 3.439208e+06 | 3.439336e+06 |   0.00%| unknown
 66.4s|     1 |     0 |  8290 |     - |   526M |   0 |  22k|  18k|  17k|   6 |  1 |  74k|   0 | 3.439210e+06 | 3.439336e+06 |   0.00%| unknown
 66.4s|     1 |     0 |  8290 |     - |   526M |   0 |  22k|  18k|  17k|   6 |  1 |  74k|   0 | 3.439210e+06 | 3.439336e+06 |   0.00%| unknown
 66.6s|     1 |     0 |  8307 |     - |   528M |   0 |  22k|  18k|  17k|   8 |  2 |  74k|   0 | 3.439211e+06 | 3.439336e+06 |   0.00%| unknown
 67.0s|     1 |     0 |  8330 |     - |   530M |   0 |  22k|  18k|  17k|  11 |  3 |  74k|   0 | 3.439212e+06 | 3.439336e+06 |   0.00%| unknown
 67.0s|     1 |     0 |  8330 |     - |   530M |   0 |  22k|  18k|  17k|  11 |  3 |  74k|   0 | 3.439212e+06 | 3.439336e+06 |   0.00%| unknown
 67.2s|     1 |     0 |  8335 |     - |   531M |   0 |  22k|  18k|  17k|  12 |  4 |  74k|   0 | 3.439213e+06 | 3.439336e+06 |   0.00%| unknown
 67.3s|     1 |     0 |  8344 |     - |   533M |   0 |  22k|  18k|  17k|  13 |  5 |  74k|   0 | 3.439213e+06 | 3.439336e+06 |   0.00%| unknown
 67.4s|     1 |     0 |  8354 |     - |   535M |   0 |  22k|  18k|  17k|  16 |  6 |  74k|   0 | 3.439214e+06 | 3.439336e+06 |   0.00%| unknown
 67.7s|     1 |     0 |  8357 |     - |   537M |   0 |  22k|  18k|  17k|  17 |  8 |  74k|   0 | 3.439214e+06 | 3.439336e+06 |   0.00%| unknown
 67.9s|     1 |     0 |  8357 |     - |   539M |   0 |  22k|  17k|  17k|  17 | 10 |  74k|   0 | 3.439214e+06 | 3.439336e+06 |   0.00%| unknown
 68.0s|     1 |     0 |  8362 |     - |   539M |   0 |  22k|  17k|  17k|  20 | 11 |  74k|   0 | 3.439214e+06 | 3.439336e+06 |   0.00%| unknown
 71.9s|     1 |     0 |  8743 |     - |   543M |   0 |  22k|  17k|  17k|  20 | 13 |  96k|   9 | 3.439264e+06 | 3.439336e+06 |   0.00%| unknown
(run 3, node 1) restarting after 16 global fixings of integer variables

(restart) converted 20 cuts from the global cut pool into linear constraints

presolving:
(round 1, fast)       658 del vars, 967 del conss, 0 add conss, 11 chg bounds, 0 chg sides, 15325 chg coeffs, 0 upgd conss, 32000 impls, 1 clqs
(round 2, exhaustive) 658 del vars, 977 del conss, 0 add conss, 20 chg bounds, 8 chg sides, 15331 chg coeffs, 0 upgd conss, 32000 impls, 1 clqs
presolving (3 rounds: 3 fast, 2 medium, 2 exhaustive):
 658 deleted vars, 977 deleted constraints, 0 added constraints, 20 tightened bounds, 0 added holes, 8 changed sides, 15331 changed coefficients
 32000 implications, 1 cliques
presolved problem has 22325 variables (98 bin, 0 int, 0 impl, 22227 cont) and 16271 constraints
  15680 constraints of type <varbound>
      2 constraints of type <setppc>
    581 constraints of type <linear>
      8 constraints of type <logicor>
Presolving Time: 2.57
transformed 14/100 original solutions to the transformed problem space

 time | node  | left  |LP iter|LP it/n|mem/heur|mdpt |vars |cons |rows |cuts |sepa|confs|strbr|  dualbound   | primalbound  |  gap   | compl. 
 73.1s|     1 |     0 | 10008 |     - |   548M |   0 |  22k|  16k|  16k|   0 |  0 |  96k|   9 | 3.439264e+06 | 3.439336e+06 |   0.00%| unknown
 73.1s|     1 |     0 | 10008 |     - |   549M |   0 |  22k|  16k|  15k|   0 |  0 |  96k|   9 | 3.439264e+06 | 3.439336e+06 |   0.00%| unknown
 73.4s|     1 |     0 | 10017 |     - |   552M |   0 |  22k|  16k|  15k|   4 |  1 |  96k|   9 | 3.439264e+06 | 3.439336e+06 |   0.00%| unknown
 73.6s|     1 |     0 | 10030 |     - |   553M |   0 |  22k|  16k|  15k|   6 |  2 |  96k|   9 | 3.439264e+06 | 3.439336e+06 |   0.00%| unknown
 73.9s|     1 |     0 | 10032 |     - |   555M |   0 |  22k|  16k|  15k|   7 |  3 |  96k|   9 | 3.439264e+06 | 3.439336e+06 |   0.00%| unknown
 74.1s|     1 |     0 | 10034 |     - |   556M |   0 |  22k|  16k|  15k|   8 |  4 |  96k|   9 | 3.439264e+06 | 3.439336e+06 |   0.00%| unknown
 74.3s|     1 |     0 | 10040 |     - |   558M |   0 |  22k|  16k|  15k|  12 |  5 |  96k|   9 | 3.439264e+06 | 3.439336e+06 |   0.00%| unknown
 74.6s|     1 |     0 | 10043 |     - |   560M |   0 |  22k|  16k|  15k|  15 |  6 |  96k|   9 | 3.439264e+06 | 3.439336e+06 |   0.00%| unknown
 74.8s|     1 |     0 | 10044 |     - |   561M |   0 |  22k|  16k|  15k|  16 |  7 |  96k|   9 | 3.439264e+06 | 3.439336e+06 |   0.00%| unknown
 75.0s|     1 |     0 | 10044 |     - |   563M |   0 |  22k|  15k|  15k|  16 |  9 |  96k|   9 | 3.439264e+06 | 3.439336e+06 |   0.00%| unknown
 77.7s|     1 |     0 | 10407 |     - |   563M |   0 |  22k|  14k|  15k|  16 | 11 | 118k|  23 | 3.439264e+06 | 3.439336e+06 |   0.00%| unknown
 77.9s|     1 |     0 | 10412 |     - |   563M |   0 |  22k|  14k|  15k|  18 | 12 | 118k|  23 | 3.439264e+06 | 3.439336e+06 |   0.00%| unknown
 77.9s|     1 |     0 | 10412 |     - |   564M |   0 |  22k|  14k|  14k|  18 | 12 | 118k|  23 | 3.439264e+06 | 3.439336e+06 |   0.00%| unknown
 78.3s|     1 |     0 | 10424 |     - |   564M |   0 |  22k|  14k|  14k|  18 | 13 | 140k|  28 | 3.439264e+06 | 3.439336e+06 |   0.00%| unknown
 78.5s|     1 |     0 | 10428 |     - |   565M |   0 |  22k|  12k|  14k|  18 | 15 | 162k|  29 | 3.439264e+06 | 3.439336e+06 |   0.00%| unknown
 time | node  | left  |LP iter|LP it/n|mem/heur|mdpt |vars |cons |rows |cuts |sepa|confs|strbr|  dualbound   | primalbound  |  gap   | compl. 
 78.6s|     1 |     0 | 10430 |     - |   565M |   0 |  22k|  12k|  14k|  19 | 16 | 162k|  29 | 3.439264e+06 | 3.439336e+06 |   0.00%| unknown
 78.7s|     1 |     0 | 10431 |     - |   565M |   0 |  22k|  12k|  14k|  20 | 17 | 162k|  29 | 3.439264e+06 | 3.439336e+06 |   0.00%| unknown
 78.8s|     1 |     2 | 10431 |     - |   565M |   0 |  22k|  12k|  14k|  20 | 17 | 162k|  29 | 3.439264e+06 | 3.439336e+06 |   0.00%| unknown

SCIP Status        : problem is solved [optimal solution found]
Solving Time (sec) : 80.74
Solving Nodes      : 11 (total of 14 nodes in 4 runs)
Primal Bound       : +3.43933600000000e+06 (229 solutions)
Dual Bound         : +3.43933600000000e+06
Gap                : 0.00 %
Solve Status: optimal
Solve Time: 80.76 seconds
Objective Value: 3439336.00
